<number of tasks>
89

<cycle time>
21

<task times>
1 1
2 2
3 3
4 4
5 5
6 6
7 7
8 8
9 9
10 10
11 1
12 2
13 3
14 4
15 5
16 6
17 7
18 8
19 9
20 10
21 1
22 2
23 3
24 4
25 5
26 6
27 7
28 8
29 9
30 10
31 1
32 2
33 3
34 4
35 5
36 6
37 7
38 8
39 9
40 10
41 1
42 2
43 3
44 4
45 5
46 6
47 7
48 8
49 9
50 10
51 1
52 2
53 3
54 4
55 5
56 6
57 7
58 8
59 9
60 10
61 1
62 2
63 3
64 4
65 5
66 6
67 7
68 8
69 9
70 10
71 1
72 2
73 3
74 4
75 5
76 6
77 7
78 8
79 9
80 10
81 1
82 2
83 3
84 4
85 5
86 6
87 7
88 8
89 9

<precedence relations>
1,2
2,3
3,4
4,5
4,6
4,7
4,8
4,9
5,10
6,11
7,12
8,18
9,18
10,14
11,12
12,13
13,14
14,15
14,16
15,17
16,54
17,18
18,19
18,20
19,22
20,21
20,28
21,54
22,23
23,24
24,25
25,26
25,27
25,29
26,37
27,33
28,29
29,31
30,54
31,32
32,33
33,34
34,35
35,36
35,37
36,38
37,38
38,39
39,40
39,41
39,42
39,43
40,44
41,53
42,53
43,45
44,52
45,46
46,47
47,48
47,49
49,50
50,51
51,52
52,53
53,68
53,69
53,70
53,71
54,55
55,56
56,57
57,58
57,59
57,60
57,61
57,62
57,63
57,64
57,65
57,66
58,67
59,67
60,67
61,67
62,67
63,67
64,67
65,67
66,67
67,73
68,72
69,72
70,72
71,73
72,78
72,80
73,74
74,75
74,76
75,77
76,81
77,78
78,79
79,81
80,81
81,82
81,84
81,85
82,83
83,86
84,86
85,86
86,87
87,88
87,89

<setup times forward>
1,30:2
2,30:2
3,30:2
4,7:2
4,8:1
4,30:2
5,7:2
5,8:1
5,10:2
5,11:2
5,12:2
5,30:2
6,7:2
6,8:1
6,10:2
6,11:2
6,30:2
7,5:2
7,6:2
7,8:1
7,9:2
8,5:1
8,6:1
8,7:1
8,9:1
8,10:1
8,11:1
8,12:1
8,13:1
8,14:1
8,15:1
8,30:1
9,7:2
9,8:1
9,10:2
9,11:2
9,12:2
9,16:1
9,17:1
9,18:1
9,30:2
10,6:2
10,8:1
10,9:2
10,13:2
10,14:2
11,5:2
11,8:1
11,9:2
12,5:2
12,8:1
12,9:2
12,13:2
13,8:1
13,10:2
13,30:2
14,8:1
14,16:1
14,30:2
15,8:1
15,16:1
15,17:1
15,30:2
16,9:1
16,15:1
16,19:2
16,22:2
16,23:2
16,24:2
16,25:1
16,26:1
16,27:1
16,28:1
16,29:2
16,30:1
16,31:2
16,32:2
16,33:2
16,34:2
16,35:1
16,36:1
16,37:1
16,38:1
16,39:3
16,41:3
16,42:3
16,43:3
16,44:1
16,45:1
16,47:3
16,48:1
16,49:3
16,50:1
16,51:1
16,52:1
16,53:1
16,54:3
16,68:1
16,70:1
16,71:1
17,9:1
17,30:1
18,19:2
18,30:1
19,16:2
19,20:2
19,21:2
19,28:1
19,30:3
19,54:1
19,55:1
19,56:1
19,57:1
19,58:3
19,59:3
19,60:1
19,61:3
19,62:1
19,63:1
19,64:1
19,65:2
19,66:1
19,67:3
20,19:2
20,22:2
20,23:2
20,24:2
20,25:1
20,26:1
20,27:1
20,28:1
20,30:1
21,19:2
21,22:2
21,23:2
21,24:2
21,25:1
21,26:1
21,27:1
21,28:1
21,29:2
21,30:1
21,31:2
21,32:2
21,33:2
21,34:2
21,35:1
21,36:1
21,37:1
21,38:1
21,39:3
21,41:3
21,42:3
21,43:3
21,44:1
21,45:1
21,47:3
21,48:1
21,49:3
21,50:1
21,51:1
21,52:1
21,53:1
21,54:3
21,68:1
21,70:1
21,71:1
22,16:2
22,20:2
22,21:2
22,28:1
22,30:3
22,54:1
22,55:1
22,56:1
22,57:1
22,58:3
22,59:3
22,60:1
22,61:3
22,62:1
22,63:1
22,64:1
22,65:2
22,66:1
22,67:3
23,16:2
23,20:2
23,21:2
23,28:1
23,30:3
23,54:1
23,55:1
23,56:1
23,57:1
23,58:3
23,59:3
23,60:1
23,61:3
23,62:1
23,63:1
23,64:1
23,65:2
23,66:1
23,67:3
24,16:2
24,20:2
24,21:2
24,25:1
24,28:1
24,30:3
24,54:1
24,55:1
24,56:1
24,57:1
24,58:3
24,59:3
24,60:1
24,61:3
24,62:1
24,63:1
24,64:1
24,65:2
24,66:1
24,67:3
25,16:1
25,20:1
25,21:1
25,26:2
25,29:1
25,30:2
25,54:2
25,55:2
25,58:2
25,59:2
25,60:2
25,61:2
25,62:2
25,64:2
25,65:1
25,66:2
25,67:2
26,16:1
26,20:1
26,21:1
26,27:2
26,28:2
26,29:3
26,31:3
26,32:3
26,33:3
26,34:3
26,36:2
26,37:2
26,54:4
26,55:4
26,56:2
26,57:2
26,60:4
26,62:4
26,63:2
26,64:4
26,65:1
26,66:4
27,16:1
27,20:1
27,21:1
27,26:2
27,29:1
27,30:2
27,31:1
27,32:1
27,33:1
27,54:2
27,55:2
27,58:2
27,59:2
27,60:2
27,61:2
27,62:2
27,64:2
27,65:1
27,66:2
27,67:2
28,16:1
28,19:1
28,21:1
28,22:1
28,23:1
28,24:1
28,26:2
28,29:1
28,30:2
28,54:2
28,55:2
28,58:2
28,59:2
28,60:2
28,61:2
28,62:2
28,64:2
28,65:1
28,66:2
28,67:2
29,16:2
29,21:2
29,26:3
29,27:1
29,30:3
29,54:1
29,55:1
29,56:1
29,57:1
29,58:3
29,59:3
29,60:1
29,61:3
29,62:1
29,63:1
29,64:1
29,65:2
29,66:1
29,67:3
30,1:2
30,2:2
30,3:2
30,4:2
30,5:2
30,6:2
30,8:1
30,9:2
30,13:2
30,14:2
30,15:2
30,16:1
30,17:1
30,18:1
30,19:3
30,20:1
30,21:1
30,22:3
30,23:3
30,24:3
30,25:2
30,27:2
30,28:2
30,29:3
30,31:3
30,32:3
30,33:3
30,34:3
30,36:2
30,37:2
30,38:2
30,39:4
30,40:1
30,41:4
30,42:4
30,43:4
30,45:2
30,46:1
30,47:4
30,49:4
30,53:2
30,54:4
30,68:2
30,69:1
30,70:2
30,72:1
30,80:1
31,16:2
31,21:2
31,26:3
31,27:1
31,30:3
31,54:1
31,55:1
31,56:1
31,57:1
31,58:3
31,59:3
31,60:1
31,61:3
31,62:1
31,63:1
31,64:1
31,65:2
31,66:1
31,67:3
32,16:2
32,21:2
32,26:3
32,27:1
32,30:3
32,54:1
32,55:1
32,56:1
32,57:1
32,58:3
32,59:3
32,60:1
32,61:3
32,62:1
32,63:1
32,64:1
32,65:2
32,66:1
32,67:3
33,16:2
33,21:2
33,26:3
33,30:3
33,54:1
33,55:1
33,56:1
33,57:1
33,58:3
33,59:3
33,60:1
33,61:3
33,62:1
33,63:1
33,64:1
33,65:2
33,66:1
33,67:3
34,16:2
34,21:2
34,26:3
34,30:3
34,35:3
34,54:1
34,55:1
34,56:1
34,57:1
34,58:3
34,59:3
34,60:1
34,61:3
34,62:1
34,63:1
34,64:1
34,65:2
34,66:1
34,67:3
35,16:1
35,21:1
35,36:2
35,37:2
35,54:4
35,55:4
35,56:2
35,57:2
35,60:4
35,62:4
35,63:2
35,64:4
35,65:1
35,66:4
36,16:1
36,21:1
36,26:2
36,30:2
36,54:2
36,55:2
36,58:2
36,59:2
36,60:2
36,61:2
36,62:2
36,64:2
36,65:1
36,66:2
36,67:2
37,16:1
37,21:1
37,30:2
37,54:2
37,55:2
37,58:2
37,59:2
37,60:2
37,61:2
37,62:2
37,64:2
37,65:1
37,66:2
37,67:2
38,16:1
38,21:1
38,30:2
38,39:2
38,54:2
38,55:2
38,58:2
38,59:2
38,60:2
38,61:2
38,62:2
38,64:2
38,65:1
38,66:2
38,67:2
39,16:3
39,21:3
39,30:4
39,40:3
39,56:2
39,57:2
39,58:4
39,59:4
39,61:4
39,63:2
39,65:3
39,67:4
40,30:1
40,41:3
40,42:3
40,43:3
40,44:1
40,45:1
40,47:3
40,48:1
40,49:3
40,50:1
40,51:1
40,54:3
40,55:3
40,56:1
40,57:1
40,58:1
40,59:1
40,60:3
40,61:1
40,62:3
40,63:1
40,64:3
40,66:3
40,67:1
41,16:3
41,21:3
41,30:4
41,40:3
41,44:4
41,45:2
41,46:3
41,48:4
41,50:4
41,51:4
41,52:4
41,53:2
41,56:2
41,57:2
41,58:4
41,59:4
41,61:4
41,63:2
41,65:3
41,67:4
42,16:3
42,21:3
42,30:4
42,40:3
42,44:4
42,45:2
42,46:3
42,48:4
42,50:4
42,51:4
42,52:4
42,53:2
42,56:2
42,57:2
42,58:4
42,59:4
42,61:4
42,63:2
42,65:3
42,67:4
43,16:3
43,21:3
43,30:4
43,40:3
43,44:4
43,45:2
43,56:2
43,57:2
43,58:4
43,59:4
43,61:4
43,63:2
43,65:3
43,67:4
44,16:1
44,21:1
44,41:4
44,42:4
44,43:4
44,45:2
44,46:1
44,47:4
44,49:4
44,54:4
44,55:4
44,56:2
44,57:2
44,60:4
44,62:4
44,63:2
44,64:4
44,65:1
44,66:4
45,16:1
45,21:1
45,30:2
45,40:1
45,41:2
45,42:2
45,44:2
45,46:1
45,54:2
45,55:2
45,58:2
45,59:2
45,60:2
45,61:2
45,62:2
45,64:2
45,65:1
45,66:2
45,67:2
46,30:1
46,41:3
46,42:3
46,44:1
46,47:3
46,54:3
46,55:3
46,56:1
46,57:1
46,58:1
46,59:1
46,60:3
46,61:1
46,62:3
46,63:1
46,64:3
46,66:3
46,67:1
47,16:3
47,21:3
47,30:4
47,40:3
47,44:4
47,48:4
47,56:2
47,57:2
47,58:4
47,59:4
47,61:4
47,63:2
47,65:3
47,67:4
48,16:1
48,21:1
48,40:1
48,41:4
48,42:4
48,49:4
48,53:2
48,54:4
48,55:4
48,56:2
48,57:2
48,60:4
48,62:4
48,63:2
48,64:4
48,65:1
48,66:4
48,68:2
48,69:1
48,70:2
48,72:1
48,79:3
48,80:1
48,81:3
48,82:3
48,84:3
48,88:2
48,89:2
49,16:3
49,21:3
49,30:4
49,40:3
49,44:4
49,48:4
49,50:4
49,56:2
49,57:2
49,58:4
49,59:4
49,61:4
49,63:2
49,65:3
49,67:4
50,16:1
50,21:1
50,40:1
50,41:4
50,42:4
50,54:4
50,55:4
50,56:2
50,57:2
50,60:4
50,62:4
50,63:2
50,64:4
50,65:1
50,66:4
51,16:1
51,21:1
51,40:1
51,41:4
51,42:4
51,54:4
51,55:4
51,56:2
51,57:2
51,60:4
51,62:4
51,63:2
51,64:4
51,65:1
51,66:4
52,16:1
52,21:1
52,41:4
52,42:4
52,53:2
52,54:4
52,55:4
52,56:2
52,57:2
52,60:4
52,62:4
52,63:2
52,64:4
52,65:1
52,66:4
53,16:1
53,21:1
53,30:2
53,48:2
53,54:2
53,55:2
53,58:2
53,59:2
53,60:2
53,61:2
53,62:2
53,64:2
53,65:1
53,66:2
53,67:2
53,69:1
53,71:2
54,19:1
54,22:1
54,23:1
54,24:1
54,25:2
54,26:4
54,27:2
54,28:2
54,29:1
54,31:1
54,32:1
54,33:1
54,34:1
54,35:4
54,36:2
54,37:2
54,38:2
54,40:3
54,44:4
54,45:2
54,46:3
54,48:4
54,50:4
54,51:4
54,52:4
54,53:2
54,68:2
54,69:3
54,70:2
54,71:4
54,72:3
54,80:3
55,19:1
55,22:1
55,23:1
55,24:1
55,25:2
55,26:4
55,27:2
55,28:2
55,29:1
55,31:1
55,32:1
55,33:1
55,34:1
55,35:4
55,36:2
55,37:2
55,38:2
55,40:3
55,44:4
55,45:2
55,46:3
55,48:4
55,50:4
55,51:4
55,52:4
55,53:2
55,56:2
55,68:2
55,69:3
55,70:2
55,71:4
55,72:3
55,80:3
56,19:1
56,22:1
56,23:1
56,24:1
56,26:2
56,29:1
56,31:1
56,32:1
56,33:1
56,34:1
56,35:2
56,39:2
56,40:1
56,41:2
56,42:2
56,43:2
56,44:2
56,46:1
56,47:2
56,48:2
56,49:2
56,50:2
56,51:2
56,52:2
56,69:1
56,71:2
56,72:1
56,80:1
57,19:1
57,22:1
57,23:1
57,24:1
57,26:2
57,29:1
57,31:1
57,32:1
57,33:1
57,34:1
57,35:2
57,39:2
57,40:1
57,41:2
57,42:2
57,43:2
57,44:2
57,46:1
57,47:2
57,48:2
57,49:2
57,50:2
57,51:2
57,52:2
57,58:2
57,59:2
57,60:2
57,61:2
57,62:2
57,64:2
57,65:1
57,66:2
57,69:1
57,71:2
57,72:1
57,80:1
58,19:3
58,22:3
58,23:3
58,24:3
58,25:2
58,27:2
58,28:2
58,29:3
58,31:3
58,32:3
58,33:3
58,34:3
58,36:2
58,37:2
58,38:2
58,39:4
58,40:1
58,41:4
58,42:4
58,43:4
58,45:2
58,46:1
58,47:4
58,49:4
58,53:2
58,60:4
58,62:4
58,63:2
58,64:4
58,65:1
58,66:4
58,68:2
58,69:1
58,70:2
58,72:1
58,80:1
59,19:3
59,22:3
59,23:3
59,24:3
59,25:2
59,27:2
59,28:2
59,29:3
59,31:3
59,32:3
59,33:3
59,34:3
59,36:2
59,37:2
59,38:2
59,39:4
59,40:1
59,41:4
59,42:4
59,43:4
59,45:2
59,46:1
59,47:4
59,49:4
59,53:2
59,60:4
59,62:4
59,63:2
59,64:4
59,65:1
59,66:4
59,68:2
59,69:1
59,70:2
59,72:1
59,80:1
60,19:1
60,22:1
60,23:1
60,24:1
60,25:2
60,26:4
60,27:2
60,28:2
60,29:1
60,31:1
60,32:1
60,33:1
60,34:1
60,35:4
60,36:2
60,37:2
60,38:2
60,40:3
60,44:4
60,45:2
60,46:3
60,48:4
60,50:4
60,51:4
60,52:4
60,53:2
60,58:4
60,59:4
60,61:4
60,63:2
60,65:3
60,67:4
60,68:2
60,69:3
60,70:2
60,71:4
60,72:3
60,80:3
61,19:3
61,22:3
61,23:3
61,24:3
61,25:2
61,27:2
61,28:2
61,29:3
61,31:3
61,32:3
61,33:3
61,34:3
61,36:2
61,37:2
61,38:2
61,39:4
61,40:1
61,41:4
61,42:4
61,43:4
61,45:2
61,46:1
61,47:4
61,49:4
61,53:2
61,60:4
61,62:4
61,63:2
61,64:4
61,65:1
61,66:4
61,68:2
61,69:1
61,70:2
61,72:1
61,80:1
62,19:1
62,22:1
62,23:1
62,24:1
62,25:2
62,26:4
62,27:2
62,28:2
62,29:1
62,31:1
62,32:1
62,33:1
62,34:1
62,35:4
62,36:2
62,37:2
62,38:2
62,40:3
62,44:4
62,45:2
62,46:3
62,48:4
62,50:4
62,51:4
62,52:4
62,53:2
62,58:4
62,59:4
62,61:4
62,63:2
62,65:3
62,67:4
62,68:2
62,69:3
62,70:2
62,71:4
62,72:3
62,80:3
63,19:1
63,22:1
63,23:1
63,24:1
63,26:2
63,29:1
63,31:1
63,32:1
63,33:1
63,34:1
63,35:2
63,39:2
63,40:1
63,41:2
63,42:2
63,43:2
63,44:2
63,46:1
63,47:2
63,48:2
63,49:2
63,50:2
63,51:2
63,52:2
63,58:2
63,59:2
63,60:2
63,61:2
63,62:2
63,64:2
63,65:1
63,66:2
63,67:2
63,69:1
63,71:2
63,72:1
63,80:1
64,19:1
64,22:1
64,23:1
64,24:1
64,25:2
64,26:4
64,27:2
64,28:2
64,29:1
64,31:1
64,32:1
64,33:1
64,34:1
64,35:4
64,36:2
64,37:2
64,38:2
64,40:3
64,44:4
64,45:2
64,46:3
64,48:4
64,50:4
64,51:4
64,52:4
64,53:2
64,58:4
64,59:4
64,61:4
64,63:2
64,65:3
64,67:4
64,68:2
64,69:3
64,70:2
64,71:4
64,72:3
64,80:3
65,19:2
65,22:2
65,23:2
65,24:2
65,25:1
65,26:1
65,27:1
65,28:1
65,29:2
65,31:2
65,32:2
65,33:2
65,34:2
65,35:1
65,36:1
65,37:1
65,38:1
65,39:3
65,41:3
65,42:3
65,43:3
65,44:1
65,45:1
65,47:3
65,48:1
65,49:3
65,50:1
65,51:1
65,52:1
65,53:1
65,58:1
65,59:1
65,60:3
65,61:1
65,62:3
65,63:1
65,64:3
65,66:3
65,67:1
65,68:1
65,70:1
65,71:1
66,19:1
66,22:1
66,23:1
66,24:1
66,25:2
66,26:4
66,27:2
66,28:2
66,29:1
66,31:1
66,32:1
66,33:1
66,34:1
66,35:4
66,36:2
66,37:2
66,38:2
66,40:3
66,44:4
66,45:2
66,46:3
66,48:4
66,50:4
66,51:4
66,52:4
66,53:2
66,58:4
66,59:4
66,61:4
66,63:2
66,65:3
66,67:4
66,68:2
66,69:3
66,70:2
66,71:4
66,72:3
66,80:3
67,19:3
67,22:3
67,23:3
67,24:3
67,25:2
67,27:2
67,28:2
67,29:3
67,31:3
67,32:3
67,33:3
67,34:3
67,36:2
67,37:2
67,38:2
67,39:4
67,40:1
67,41:4
67,42:4
67,43:4
67,45:2
67,46:1
67,47:4
67,49:4
67,53:2
67,68:2
67,69:1
67,70:2
67,72:1
67,80:1
68,16:1
68,21:1
68,30:2
68,48:2
68,54:2
68,55:2
68,58:2
68,59:2
68,60:2
68,61:2
68,62:2
68,64:2
68,65:1
68,66:2
68,67:2
68,69:1
68,71:2
68,72:1
68,73:2
68,74:2
68,75:2
68,76:2
68,77:2
69,30:1
69,48:1
69,54:3
69,55:3
69,56:1
69,57:1
69,58:1
69,59:1
69,60:3
69,61:1
69,62:3
69,63:1
69,64:3
69,66:3
69,67:1
69,68:1
69,70:1
69,71:1
69,73:1
69,74:1
69,75:1
69,76:1
69,77:1
70,16:1
70,21:1
70,30:2
70,48:2
70,54:2
70,55:2
70,58:2
70,59:2
70,60:2
70,61:2
70,62:2
70,64:2
70,65:1
70,66:2
70,67:2
70,69:1
70,71:2
70,72:1
70,73:2
70,74:2
70,75:2
70,76:2
70,77:2
71,16:1
71,21:1
71,54:4
71,55:4
71,56:2
71,57:2
71,60:4
71,62:4
71,63:2
71,64:4
71,65:1
71,66:4
71,68:2
71,69:1
71,70:2
71,72:1
71,80:1
72,30:1
72,48:1
72,54:3
72,55:3
72,56:1
72,57:1
72,58:1
72,59:1
72,60:3
72,61:1
72,62:3
72,63:1
72,64:3
72,66:3
72,67:1
72,71:1
72,73:1
72,74:1
72,75:1
72,76:1
72,77:1
72,78:1
73,68:2
73,69:1
73,70:2
73,72:1
73,80:1
74,68:2
74,69:1
74,70:2
74,72:1
74,80:1
75,68:2
75,69:1
75,70:2
75,72:1
75,80:1
76,68:2
76,69:1
76,70:2
76,72:1
76,79:3
76,80:1
76,81:3
77,68:2
77,69:1
77,70:2
77,72:1
77,80:1
78,79:3
78,80:1
79,48:3
79,76:3
79,80:2
80,30:1
80,48:1
80,54:3
80,55:3
80,56:1
80,57:1
80,58:1
80,59:1
80,60:3
80,61:1
80,62:3
80,63:1
80,64:3
80,66:3
80,67:1
80,71:1
80,73:1
80,74:1
80,75:1
80,76:1
80,77:1
80,78:1
80,79:2
80,81:2
81,48:3
81,85:3
82,48:3
82,83:3
82,85:3
83,84:3
84,48:3
84,83:3
84,85:3
84,86:3
85,82:3
85,84:3
87,88:2
87,89:2
88,48:2
89,48:2

<setup times backward>
7,1:2
7,2:2
7,3:2
7,4:2
7,5:2
7,6:2
7,8:1
7,9:2
8,1:1
8,2:1
8,3:1
8,4:1
8,5:1
8,6:1
8,9:1
8,13:1
8,14:1
8,15:1
10,1:2
10,2:2
10,3:2
10,4:2
10,5:2
10,6:2
10,8:1
10,9:2
10,13:2
11,1:2
11,2:2
11,3:2
11,4:2
11,5:2
11,6:2
11,8:1
11,9:2
12,1:2
12,2:2
12,3:2
12,4:2
12,5:2
12,6:2
12,8:1
12,9:2
16,1:1
16,2:1
16,3:1
16,4:1
16,5:1
16,6:1
16,9:1
16,13:1
16,14:1
16,15:1
16,19:2
16,22:2
16,23:2
16,24:2
16,25:1
16,27:1
16,28:1
16,29:2
16,31:2
16,32:2
16,33:2
16,34:2
16,36:1
16,37:1
16,38:1
16,39:3
16,41:3
16,42:3
16,43:3
16,45:1
16,47:3
16,49:3
16,53:1
16,68:1
16,70:1
17,1:1
17,2:1
17,3:1
17,4:1
17,5:1
17,6:1
17,9:1
17,13:1
17,14:1
17,15:1
18,1:1
18,2:1
18,3:1
18,4:1
18,5:1
18,6:1
18,9:1
18,13:1
18,14:1
18,15:1
19,54:1
19,55:1
19,60:1
19,62:1
19,64:1
19,66:1
20,1:1
20,2:1
20,3:1
20,4:1
20,5:1
20,6:1
20,9:1
20,13:1
20,14:1
20,15:1
20,19:2
20,22:2
20,23:2
20,24:2
20,25:1
20,27:1
21,1:1
21,2:1
21,3:1
21,4:1
21,5:1
21,6:1
21,9:1
21,13:1
21,14:1
21,15:1
21,19:2
21,22:2
21,23:2
21,24:2
21,25:1
21,27:1
21,28:1
21,29:2
21,31:2
21,32:2
21,33:2
21,34:2
21,36:1
21,37:1
21,38:1
21,39:3
21,41:3
21,42:3
21,43:3
21,45:1
21,47:3
21,49:3
21,53:1
21,68:1
21,70:1
22,54:1
22,55:1
22,60:1
22,62:1
22,64:1
22,66:1
23,54:1
23,55:1
23,60:1
23,62:1
23,64:1
23,66:1
24,54:1
24,55:1
24,60:1
24,62:1
24,64:1
24,66:1
25,19:1
25,22:1
25,23:1
25,24:1
25,54:2
25,55:2
25,60:2
25,62:2
25,64:2
25,66:2
26,1:2
26,2:2
26,3:2
26,4:2
26,5:2
26,6:2
26,8:1
26,9:2
26,13:2
26,14:2
26,15:2
26,16:1
26,17:1
26,18:1
26,19:3
26,20:1
26,21:1
26,22:3
26,23:3
26,24:3
26,25:2
26,27:2
26,28:2
26,29:3
26,31:3
26,32:3
26,33:3
26,34:3
26,36:2
26,54:4
26,55:4
26,56:2
26,57:2
26,60:4
26,62:4
26,63:2
26,64:4
26,65:1
26,66:4
27,19:1
27,22:1
27,23:1
27,24:1
27,29:1
27,31:1
27,32:1
27,54:2
27,55:2
27,60:2
27,62:2
27,64:2
27,66:2
28,19:1
28,22:1
28,23:1
28,24:1
28,54:2
28,55:2
28,60:2
28,62:2
28,64:2
28,66:2
29,54:1
29,55:1
29,60:1
29,62:1
29,64:1
29,66:1
30,1:2
30,2:2
30,3:2
30,4:2
30,5:2
30,6:2
30,8:1
30,9:2
30,13:2
30,14:2
30,15:2
30,16:1
30,17:1
30,18:1
30,19:3
30,20:1
30,21:1
30,22:3
30,23:3
30,24:3
30,25:2
30,27:2
30,28:2
30,29:3
30,31:3
30,32:3
30,33:3
30,34:3
30,36:2
30,37:2
30,38:2
30,39:4
30,40:1
30,41:4
30,42:4
30,43:4
30,45:2
30,46:1
30,47:4
30,49:4
30,53:2
30,68:2
30,69:1
30,70:2
30,72:1
30,80:1
31,54:1
31,55:1
31,60:1
31,62:1
31,64:1
31,66:1
32,54:1
32,55:1
32,60:1
32,62:1
32,64:1
32,66:1
33,54:1
33,55:1
33,60:1
33,62:1
33,64:1
33,66:1
34,54:1
34,55:1
34,60:1
34,62:1
34,64:1
34,66:1
35,1:2
35,2:2
35,3:2
35,4:2
35,5:2
35,6:2
35,8:1
35,9:2
35,13:2
35,14:2
35,15:2
35,16:1
35,17:1
35,18:1
35,19:3
35,20:1
35,21:1
35,22:3
35,23:3
35,24:3
35,25:2
35,27:2
35,28:2
35,29:3
35,31:3
35,32:3
35,33:3
35,34:3
35,54:4
35,55:4
35,56:2
35,57:2
35,60:4
35,62:4
35,63:2
35,64:4
35,65:1
35,66:4
36,19:1
36,22:1
36,23:1
36,24:1
36,29:1
36,31:1
36,32:1
36,33:1
36,34:1
36,54:2
36,55:2
36,60:2
36,62:2
36,64:2
36,66:2
37,19:1
37,22:1
37,23:1
37,24:1
37,29:1
37,31:1
37,32:1
37,33:1
37,34:1
37,54:2
37,55:2
37,60:2
37,62:2
37,64:2
37,66:2
38,19:1
38,22:1
38,23:1
38,24:1
38,29:1
38,31:1
38,32:1
38,33:1
38,34:1
38,54:2
38,55:2
38,60:2
38,62:2
38,64:2
38,66:2
40,1:1
40,2:1
40,3:1
40,4:1
40,5:1
40,6:1
40,9:1
40,13:1
40,14:1
40,15:1
40,19:2
40,22:2
40,23:2
40,24:2
40,25:1
40,27:1
40,28:1
40,29:2
40,31:2
40,32:2
40,33:2
40,34:2
40,36:1
40,37:1
40,38:1
40,39:3
40,41:3
40,42:3
40,43:3
40,45:1
40,47:3
40,49:3
40,54:3
40,55:3
40,56:1
40,57:1
40,60:3
40,62:3
40,63:1
40,64:3
40,66:3
44,1:2
44,2:2
44,3:2
44,4:2
44,5:2
44,6:2
44,8:1
44,9:2
44,13:2
44,14:2
44,15:2
44,16:1
44,17:1
44,18:1
44,19:3
44,20:1
44,21:1
44,22:3
44,23:3
44,24:3
44,25:2
44,27:2
44,28:2
44,29:3
44,31:3
44,32:3
44,33:3
44,34:3
44,36:2
44,37:2
44,38:2
44,39:4
44,40:1
44,41:4
44,42:4
44,43:4
44,45:2
44,46:1
44,47:4
44,49:4
44,54:4
44,55:4
44,56:2
44,57:2
44,60:4
44,62:4
44,63:2
44,64:4
44,65:1
44,66:4
45,19:1
45,22:1
45,23:1
45,24:1
45,29:1
45,31:1
45,32:1
45,33:1
45,34:1
45,39:2
45,41:2
45,42:2
45,43:2
45,54:2
45,55:2
45,60:2
45,62:2
45,64:2
45,66:2
46,1:1
46,2:1
46,3:1
46,4:1
46,5:1
46,6:1
46,9:1
46,13:1
46,14:1
46,15:1
46,19:2
46,22:2
46,23:2
46,24:2
46,25:1
46,27:1
46,28:1
46,29:2
46,31:2
46,32:2
46,33:2
46,34:2
46,36:1
46,37:1
46,38:1
46,39:3
46,41:3
46,42:3
46,43:3
46,45:1
46,54:3
46,55:3
46,56:1
46,57:1
46,60:3
46,62:3
46,63:1
46,64:3
46,66:3
48,1:2
48,2:2
48,3:2
48,4:2
48,5:2
48,6:2
48,8:1
48,9:2
48,13:2
48,14:2
48,15:2
48,16:1
48,17:1
48,18:1
48,19:3
48,20:1
48,21:1
48,22:3
48,23:3
48,24:3
48,25:2
48,27:2
48,28:2
48,29:3
48,31:3
48,32:3
48,33:3
48,34:3
48,36:2
48,37:2
48,38:2
48,39:4
48,40:1
48,41:4
48,42:4
48,43:4
48,45:2
48,46:1
48,47:4
48,49:4
48,53:2
48,54:4
48,55:4
48,56:2
48,57:2
48,60:4
48,62:4
48,63:2
48,64:4
48,65:1
48,66:4
48,68:2
48,69:1
48,70:2
48,72:1
48,79:3
48,80:1
48,81:3
48,82:3
48,84:3
48,88:2
48,89:2
50,1:2
50,2:2
50,3:2
50,4:2
50,5:2
50,6:2
50,8:1
50,9:2
50,13:2
50,14:2
50,15:2
50,16:1
50,17:1
50,18:1
50,19:3
50,20:1
50,21:1
50,22:3
50,23:3
50,24:3
50,25:2
50,27:2
50,28:2
50,29:3
50,31:3
50,32:3
50,33:3
50,34:3
50,36:2
50,37:2
50,38:2
50,39:4
50,40:1
50,41:4
50,42:4
50,43:4
50,45:2
50,46:1
50,47:4
50,49:4
50,54:4
50,55:4
50,56:2
50,57:2
50,60:4
50,62:4
50,63:2
50,64:4
50,65:1
50,66:4
51,1:2
51,2:2
51,3:2
51,4:2
51,5:2
51,6:2
51,8:1
51,9:2
51,13:2
51,14:2
51,15:2
51,16:1
51,17:1
51,18:1
51,19:3
51,20:1
51,21:1
51,22:3
51,23:3
51,24:3
51,25:2
51,27:2
51,28:2
51,29:3
51,31:3
51,32:3
51,33:3
51,34:3
51,36:2
51,37:2
51,38:2
51,39:4
51,40:1
51,41:4
51,42:4
51,43:4
51,45:2
51,46:1
51,47:4
51,49:4
51,54:4
51,55:4
51,56:2
51,57:2
51,60:4
51,62:4
51,63:2
51,64:4
51,65:1
51,66:4
52,1:2
52,2:2
52,3:2
52,4:2
52,5:2
52,6:2
52,8:1
52,9:2
52,13:2
52,14:2
52,15:2
52,16:1
52,17:1
52,18:1
52,19:3
52,20:1
52,21:1
52,22:3
52,23:3
52,24:3
52,25:2
52,27:2
52,28:2
52,29:3
52,31:3
52,32:3
52,33:3
52,34:3
52,36:2
52,37:2
52,38:2
52,39:4
52,40:1
52,41:4
52,42:4
52,43:4
52,45:2
52,46:1
52,47:4
52,49:4
52,54:4
52,55:4
52,56:2
52,57:2
52,60:4
52,62:4
52,63:2
52,64:4
52,65:1
52,66:4
53,19:1
53,22:1
53,23:1
53,24:1
53,29:1
53,31:1
53,32:1
53,33:1
53,34:1
53,39:2
53,41:2
53,42:2
53,43:2
53,47:2
53,49:2
53,54:2
53,55:2
53,60:2
53,62:2
53,64:2
53,66:2
56,19:1
56,22:1
56,23:1
56,24:1
56,29:1
56,31:1
56,32:1
56,33:1
56,34:1
56,39:2
56,41:2
56,42:2
56,43:2
56,47:2
56,49:2
56,54:2
56,55:2
57,19:1
57,22:1
57,23:1
57,24:1
57,29:1
57,31:1
57,32:1
57,33:1
57,34:1
57,39:2
57,41:2
57,42:2
57,43:2
57,47:2
57,49:2
57,54:2
57,55:2
58,1:2
58,2:2
58,3:2
58,4:2
58,5:2
58,6:2
58,8:1
58,9:2
58,13:2
58,14:2
58,15:2
58,16:1
58,17:1
58,18:1
58,19:3
58,20:1
58,21:1
58,22:3
58,23:3
58,24:3
58,25:2
58,27:2
58,28:2
58,29:3
58,31:3
58,32:3
58,33:3
58,34:3
58,36:2
58,37:2
58,38:2
58,39:4
58,40:1
58,41:4
58,42:4
58,43:4
58,45:2
58,46:1
58,47:4
58,49:4
58,53:2
58,54:4
58,55:4
58,56:2
58,57:2
58,60:4
58,62:4
58,63:2
58,64:4
58,65:1
58,66:4
58,68:2
58,69:1
58,70:2
58,72:1
58,80:1
59,1:2
59,2:2
59,3:2
59,4:2
59,5:2
59,6:2
59,8:1
59,9:2
59,13:2
59,14:2
59,15:2
59,16:1
59,17:1
59,18:1
59,19:3
59,20:1
59,21:1
59,22:3
59,23:3
59,24:3
59,25:2
59,27:2
59,28:2
59,29:3
59,31:3
59,32:3
59,33:3
59,34:3
59,36:2
59,37:2
59,38:2
59,39:4
59,40:1
59,41:4
59,42:4
59,43:4
59,45:2
59,46:1
59,47:4
59,49:4
59,53:2
59,54:4
59,55:4
59,56:2
59,57:2
59,60:4
59,62:4
59,63:2
59,64:4
59,65:1
59,66:4
59,68:2
59,69:1
59,70:2
59,72:1
59,80:1
61,1:2
61,2:2
61,3:2
61,4:2
61,5:2
61,6:2
61,8:1
61,9:2
61,13:2
61,14:2
61,15:2
61,16:1
61,17:1
61,18:1
61,19:3
61,20:1
61,21:1
61,22:3
61,23:3
61,24:3
61,25:2
61,27:2
61,28:2
61,29:3
61,31:3
61,32:3
61,33:3
61,34:3
61,36:2
61,37:2
61,38:2
61,39:4
61,40:1
61,41:4
61,42:4
61,43:4
61,45:2
61,46:1
61,47:4
61,49:4
61,53:2
61,54:4
61,55:4
61,56:2
61,57:2
61,60:4
61,62:4
61,63:2
61,64:4
61,65:1
61,66:4
61,68:2
61,69:1
61,70:2
61,72:1
61,80:1
63,19:1
63,22:1
63,23:1
63,24:1
63,29:1
63,31:1
63,32:1
63,33:1
63,34:1
63,39:2
63,41:2
63,42:2
63,43:2
63,47:2
63,49:2
63,54:2
63,55:2
63,60:2
63,62:2
63,64:2
63,66:2
65,1:1
65,2:1
65,3:1
65,4:1
65,5:1
65,6:1
65,9:1
65,13:1
65,14:1
65,15:1
65,19:2
65,22:2
65,23:2
65,24:2
65,25:1
65,27:1
65,28:1
65,29:2
65,31:2
65,32:2
65,33:2
65,34:2
65,36:1
65,37:1
65,38:1
65,39:3
65,41:3
65,42:3
65,43:3
65,45:1
65,47:3
65,49:3
65,53:1
65,54:3
65,55:3
65,56:1
65,57:1
65,60:3
65,62:3
65,63:1
65,64:3
65,66:3
65,68:1
65,70:1
67,1:2
67,2:2
67,3:2
67,4:2
67,5:2
67,6:2
67,8:1
67,9:2
67,13:2
67,14:2
67,15:2
67,16:1
67,17:1
67,18:1
67,19:3
67,20:1
67,21:1
67,22:3
67,23:3
67,24:3
67,25:2
67,27:2
67,28:2
67,29:3
67,31:3
67,32:3
67,33:3
67,34:3
67,36:2
67,37:2
67,38:2
67,39:4
67,40:1
67,41:4
67,42:4
67,43:4
67,45:2
67,46:1
67,47:4
67,49:4
67,53:2
67,54:4
67,55:4
67,56:2
67,57:2
67,60:4
67,62:4
67,63:2
67,64:4
67,65:1
67,66:4
67,68:2
67,69:1
67,70:2
67,72:1
67,80:1
68,19:1
68,22:1
68,23:1
68,24:1
68,29:1
68,31:1
68,32:1
68,33:1
68,34:1
68,39:2
68,41:2
68,42:2
68,43:2
68,47:2
68,49:2
68,54:2
68,55:2
68,60:2
68,62:2
68,64:2
68,66:2
69,1:1
69,2:1
69,3:1
69,4:1
69,5:1
69,6:1
69,9:1
69,13:1
69,14:1
69,15:1
69,19:2
69,22:2
69,23:2
69,24:2
69,25:1
69,27:1
69,28:1
69,29:2
69,31:2
69,32:2
69,33:2
69,34:2
69,36:1
69,37:1
69,38:1
69,39:3
69,41:3
69,42:3
69,43:3
69,45:1
69,47:3
69,49:3
69,53:1
69,54:3
69,55:3
69,56:1
69,57:1
69,60:3
69,62:3
69,63:1
69,64:3
69,66:3
69,68:1
69,70:1
70,19:1
70,22:1
70,23:1
70,24:1
70,29:1
70,31:1
70,32:1
70,33:1
70,34:1
70,39:2
70,41:2
70,42:2
70,43:2
70,47:2
70,49:2
70,54:2
70,55:2
70,60:2
70,62:2
70,64:2
70,66:2
71,1:2
71,2:2
71,3:2
71,4:2
71,5:2
71,6:2
71,8:1
71,9:2
71,13:2
71,14:2
71,15:2
71,16:1
71,17:1
71,18:1
71,19:3
71,20:1
71,21:1
71,22:3
71,23:3
71,24:3
71,25:2
71,27:2
71,28:2
71,29:3
71,31:3
71,32:3
71,33:3
71,34:3
71,36:2
71,37:2
71,38:2
71,39:4
71,40:1
71,41:4
71,42:4
71,43:4
71,45:2
71,46:1
71,47:4
71,49:4
71,53:2
71,54:4
71,55:4
71,56:2
71,57:2
71,60:4
71,62:4
71,63:2
71,64:4
71,65:1
71,66:4
71,68:2
71,69:1
71,70:2
71,72:1
71,80:1
72,1:1
72,2:1
72,3:1
72,4:1
72,5:1
72,6:1
72,9:1
72,13:1
72,14:1
72,15:1
72,19:2
72,22:2
72,23:2
72,24:2
72,25:1
72,27:1
72,28:1
72,29:2
72,31:2
72,32:2
72,33:2
72,34:2
72,36:1
72,37:1
72,38:1
72,39:3
72,41:3
72,42:3
72,43:3
72,45:1
72,47:3
72,49:3
72,53:1
72,54:3
72,55:3
72,56:1
72,57:1
72,60:3
72,62:3
72,63:1
72,64:3
72,66:3
72,68:1
72,70:1
73,1:2
73,2:2
73,3:2
73,4:2
73,5:2
73,6:2
73,8:1
73,9:2
73,13:2
73,14:2
73,15:2
73,16:1
73,17:1
73,18:1
73,19:3
73,20:1
73,21:1
73,22:3
73,23:3
73,24:3
73,25:2
73,27:2
73,28:2
73,29:3
73,31:3
73,32:3
73,33:3
73,34:3
73,36:2
73,37:2
73,38:2
73,39:4
73,40:1
73,41:4
73,42:4
73,43:4
73,45:2
73,46:1
73,47:4
73,49:4
73,53:2
73,54:4
73,55:4
73,56:2
73,57:2
73,60:4
73,62:4
73,63:2
73,64:4
73,65:1
73,66:4
73,68:2
73,69:1
73,70:2
73,72:1
73,80:1
74,1:2
74,2:2
74,3:2
74,4:2
74,5:2
74,6:2
74,8:1
74,9:2
74,13:2
74,14:2
74,15:2
74,16:1
74,17:1
74,18:1
74,19:3
74,20:1
74,21:1
74,22:3
74,23:3
74,24:3
74,25:2
74,27:2
74,28:2
74,29:3
74,31:3
74,32:3
74,33:3
74,34:3
74,36:2
74,37:2
74,38:2
74,39:4
74,40:1
74,41:4
74,42:4
74,43:4
74,45:2
74,46:1
74,47:4
74,49:4
74,53:2
74,54:4
74,55:4
74,56:2
74,57:2
74,60:4
74,62:4
74,63:2
74,64:4
74,65:1
74,66:4
74,68:2
74,69:1
74,70:2
74,72:1
74,80:1
75,1:2
75,2:2
75,3:2
75,4:2
75,5:2
75,6:2
75,8:1
75,9:2
75,13:2
75,14:2
75,15:2
75,16:1
75,17:1
75,18:1
75,19:3
75,20:1
75,21:1
75,22:3
75,23:3
75,24:3
75,25:2
75,27:2
75,28:2
75,29:3
75,31:3
75,32:3
75,33:3
75,34:3
75,36:2
75,37:2
75,38:2
75,39:4
75,40:1
75,41:4
75,42:4
75,43:4
75,45:2
75,46:1
75,47:4
75,49:4
75,53:2
75,54:4
75,55:4
75,56:2
75,57:2
75,60:4
75,62:4
75,63:2
75,64:4
75,65:1
75,66:4
75,68:2
75,69:1
75,70:2
75,72:1
75,80:1
76,1:2
76,2:2
76,3:2
76,4:2
76,5:2
76,6:2
76,8:1
76,9:2
76,13:2
76,14:2
76,15:2
76,16:1
76,17:1
76,18:1
76,19:3
76,20:1
76,21:1
76,22:3
76,23:3
76,24:3
76,25:2
76,27:2
76,28:2
76,29:3
76,31:3
76,32:3
76,33:3
76,34:3
76,36:2
76,37:2
76,38:2
76,39:4
76,40:1
76,41:4
76,42:4
76,43:4
76,45:2
76,46:1
76,47:4
76,49:4
76,53:2
76,54:4
76,55:4
76,56:2
76,57:2
76,60:4
76,62:4
76,63:2
76,64:4
76,65:1
76,66:4
76,68:2
76,69:1
76,70:2
76,72:1
76,79:3
76,80:1
77,1:2
77,2:2
77,3:2
77,4:2
77,5:2
77,6:2
77,8:1
77,9:2
77,13:2
77,14:2
77,15:2
77,16:1
77,17:1
77,18:1
77,19:3
77,20:1
77,21:1
77,22:3
77,23:3
77,24:3
77,25:2
77,27:2
77,28:2
77,29:3
77,31:3
77,32:3
77,33:3
77,34:3
77,36:2
77,37:2
77,38:2
77,39:4
77,40:1
77,41:4
77,42:4
77,43:4
77,45:2
77,46:1
77,47:4
77,49:4
77,53:2
77,54:4
77,55:4
77,56:2
77,57:2
77,60:4
77,62:4
77,63:2
77,64:4
77,65:1
77,66:4
77,68:2
77,69:1
77,70:2
77,72:1
77,80:1
78,1:2
78,2:2
78,3:2
78,4:2
78,5:2
78,6:2
78,8:1
78,9:2
78,13:2
78,14:2
78,15:2
78,16:1
78,17:1
78,18:1
78,19:3
78,20:1
78,21:1
78,22:3
78,23:3
78,24:3
78,25:2
78,27:2
78,28:2
78,29:3
78,31:3
78,32:3
78,33:3
78,34:3
78,36:2
78,37:2
78,38:2
78,39:4
78,40:1
78,41:4
78,42:4
78,43:4
78,45:2
78,46:1
78,47:4
78,49:4
78,53:2
78,54:4
78,55:4
78,56:2
78,57:2
78,60:4
78,62:4
78,63:2
78,64:4
78,65:1
78,66:4
78,68:2
78,69:1
78,70:2
78,72:1
78,80:1
79,39:1
79,41:1
79,42:1
79,43:1
79,47:1
79,49:1
79,54:1
79,55:1
79,60:1
79,62:1
79,64:1
79,66:1
80,1:1
80,2:1
80,3:1
80,4:1
80,5:1
80,6:1
80,9:1
80,13:1
80,14:1
80,15:1
80,19:2
80,22:2
80,23:2
80,24:2
80,25:1
80,27:1
80,28:1
80,29:2
80,31:2
80,32:2
80,33:2
80,34:2
80,36:1
80,37:1
80,38:1
80,39:3
80,41:3
80,42:3
80,43:3
80,45:1
80,47:3
80,49:3
80,53:1
80,54:3
80,55:3
80,56:1
80,57:1
80,60:3
80,62:3
80,63:1
80,64:3
80,66:3
80,68:1
80,70:1
80,79:2
81,39:1
81,41:1
81,42:1
81,43:1
81,47:1
81,49:1
81,54:1
81,55:1
81,60:1
81,62:1
81,64:1
81,66:1
82,39:1
82,41:1
82,42:1
82,43:1
82,47:1
82,49:1
82,54:1
82,55:1
82,60:1
82,62:1
82,64:1
82,66:1
83,1:2
83,2:2
83,3:2
83,4:2
83,5:2
83,6:2
83,8:1
83,9:2
83,13:2
83,14:2
83,15:2
83,16:1
83,17:1
83,18:1
83,19:3
83,20:1
83,21:1
83,22:3
83,23:3
83,24:3
83,25:2
83,27:2
83,28:2
83,29:3
83,31:3
83,32:3
83,33:3
83,34:3
83,36:2
83,37:2
83,38:2
83,39:4
83,40:1
83,41:4
83,42:4
83,43:4
83,45:2
83,46:1
83,47:4
83,49:4
83,53:2
83,54:4
83,55:4
83,56:2
83,57:2
83,60:4
83,62:4
83,63:2
83,64:4
83,65:1
83,66:4
83,68:2
83,69:1
83,70:2
83,72:1
83,79:3
83,80:1
83,81:3
83,82:3
83,84:3
84,39:1
84,41:1
84,42:1
84,43:1
84,47:1
84,49:1
84,54:1
84,55:1
84,60:1
84,62:1
84,64:1
84,66:1
85,1:2
85,2:2
85,3:2
85,4:2
85,5:2
85,6:2
85,8:1
85,9:2
85,13:2
85,14:2
85,15:2
85,16:1
85,17:1
85,18:1
85,19:3
85,20:1
85,21:1
85,22:3
85,23:3
85,24:3
85,25:2
85,27:2
85,28:2
85,29:3
85,31:3
85,32:3
85,33:3
85,34:3
85,36:2
85,37:2
85,38:2
85,39:4
85,40:1
85,41:4
85,42:4
85,43:4
85,45:2
85,46:1
85,47:4
85,49:4
85,53:2
85,54:4
85,55:4
85,56:2
85,57:2
85,60:4
85,62:4
85,63:2
85,64:4
85,65:1
85,66:4
85,68:2
85,69:1
85,70:2
85,72:1
85,79:3
85,80:1
85,81:3
85,82:3
85,84:3
86,1:2
86,2:2
86,3:2
86,4:2
86,5:2
86,6:2
86,8:1
86,9:2
86,13:2
86,14:2
86,15:2
86,16:1
86,17:1
86,18:1
86,19:3
86,20:1
86,21:1
86,22:3
86,23:3
86,24:3
86,25:2
86,27:2
86,28:2
86,29:3
86,31:3
86,32:3
86,33:3
86,34:3
86,36:2
86,37:2
86,38:2
86,39:4
86,40:1
86,41:4
86,42:4
86,43:4
86,45:2
86,46:1
86,47:4
86,49:4
86,53:2
86,54:4
86,55:4
86,56:2
86,57:2
86,60:4
86,62:4
86,63:2
86,64:4
86,65:1
86,66:4
86,68:2
86,69:1
86,70:2
86,72:1
86,79:3
86,80:1
86,81:3
86,82:3
86,84:3
87,1:2
87,2:2
87,3:2
87,4:2
87,5:2
87,6:2
87,8:1
87,9:2
87,13:2
87,14:2
87,15:2
87,16:1
87,17:1
87,18:1
87,19:3
87,20:1
87,21:1
87,22:3
87,23:3
87,24:3
87,25:2
87,27:2
87,28:2
87,29:3
87,31:3
87,32:3
87,33:3
87,34:3
87,36:2
87,37:2
87,38:2
87,39:4
87,40:1
87,41:4
87,42:4
87,43:4
87,45:2
87,46:1
87,47:4
87,49:4
87,53:2
87,54:4
87,55:4
87,56:2
87,57:2
87,60:4
87,62:4
87,63:2
87,64:4
87,65:1
87,66:4
87,68:2
87,69:1
87,70:2
87,72:1
87,79:3
87,80:1
87,81:3
87,82:3
87,84:3
88,19:1
88,22:1
88,23:1
88,24:1
88,29:1
88,31:1
88,32:1
88,33:1
88,34:1
88,39:2
88,41:2
88,42:2
88,43:2
88,47:2
88,49:2
88,54:2
88,55:2
88,60:2
88,62:2
88,64:2
88,66:2
88,79:1
88,81:1
88,82:1
88,84:1
89,19:1
89,22:1
89,23:1
89,24:1
89,29:1
89,31:1
89,32:1
89,33:1
89,34:1
89,39:2
89,41:2
89,42:2
89,43:2
89,47:2
89,49:2
89,54:2
89,55:2
89,60:2
89,62:2
89,64:2
89,66:2
89,79:1
89,81:1
89,82:1
89,84:1

<end>

<optimal SALBP-1 value>
24


<rand seed>
467321153

<Lower Bounds>
Lm1=24
Lms1=24
Lm2=0
Lm3=16
Lm4=24
Best=24

<Optimal Stations (Iterations: 10)>
31
